12
1 2
2 7
3 7
4 2
5 1
6 9
7 6
8 5
9 4
10 2
11 5
12 1
38
0 1 41
1 0 41
0 2 69
2 0 69
0 3 27
3 0 27
0 4 51
4 0 51
0 5 30
5 0 30
0 6 36
6 0 36
0 7 89
7 0 89
0 8 65
8 0 65
0 9 52
9 0 52
0 10 87
10 0 87
0 11 14
11 0 14
0 12 44
12 0 44
1 6 69
1 9 26
1 10 59
2 9 49
3 11 1
4 5 85
4 7 2
4 8 1
4 10 2
4 11 92
6 7 68
6 8 53
7 8 60
8 11 98
